NAME          COPTPROB
OBJSENSE
  MIN
ROWS
 N  __OBJ___
 L  C7      
 L  C113    
 L  C188    
COLUMNS
    MARKER    'MARKER'                 'INTORG'
    x459      __OBJ___  68
    x459      C7        -1
    x459      C113      -1
    x1171     __OBJ___  66
    x1171     C113      -1
    x1677     __OBJ___  89
    x1677     C7        -1
    x1677     C188      -1
    x1752     __OBJ___  111
    x1752     C113      -1
    x1752     C188      -1
    x2817     __OBJ___  36
    x2817     C7        -1
    MARKER    'MARKER'                 'INTEND'
RHS
    RHS       __OBJ___  -4910
    RHS       C7        -1
    RHS       C113      -1
    RHS       C188      -1
BOUNDS
 UP BOUND     x459      1
 UP BOUND     x1171     1
 UP BOUND     x1677     1
 UP BOUND     x1752     1
 UP BOUND     x2817     1
ENDATA
